results_rootrelaxation/bin018_050_043.srr.sol
solution status: optimal solution found
objective value:                                    0
_var62_                            0.0775863575334759 	(obj:0)
_var1729_                          0.0457718564000021 	(obj:0)
_var2446_                           0.395212726918152 	(obj:0)
_var2750_                           0.266809034298965 	(obj:0)
_var2752_                          0.0269701363563965 	(obj:0)
_var2755_                           0.203757322946287 	(obj:0)
_var2758_                           0.155125972566956 	(obj:0)
_var2760_                           0.172710025065903 	(obj:0)
_var2761_                          0.0124538878266772 	(obj:0)
_var2778_                           0.266454434805809 	(obj:0)
_var2786_                           0.077479690032752 	(obj:0)
_var2788_                           0.149058805832646 	(obj:0)
_var2790_                           0.138765199909595 	(obj:0)
_var2796_                           0.292755238652673 	(obj:0)
_var2801_                           0.137044347196314 	(obj:0)
_var2802_                           0.302941154921827 	(obj:0)
_var2805_                          0.0738439440478403 	(obj:0)
_var2811_                          0.0910240661997219 	(obj:0)
_var2814_                          0.0260452318354466 	(obj:0)
_var2819_                          0.0580697941922698 	(obj:0)
_var2820_                          0.0317645051270809 	(obj:0)
_var2822_                           0.129194083810348 	(obj:0)
_var2823_                          0.0205861008421415 	(obj:0)
_var2825_                           0.331703116088051 	(obj:0)
_var2828_                          0.0854833643150134 	(obj:0)
_var2830_                           0.316374864340484 	(obj:0)
_var2832_                           0.196896402490429 	(obj:0)
_var2839_                          0.0232989238648697 	(obj:0)
_var2841_                           0.121964925116827 	(obj:0)
_var2843_                          0.0671118659648166 	(obj:0)
_var2844_                           0.300018537865019 	(obj:0)
_var2846_                           0.284661271287151 	(obj:0)
_var2851_                           0.116569676839594 	(obj:0)
_var2856_                          0.0199951729945338 	(obj:0)
_var2858_                             0.2591940192553 	(obj:0)
_var2859_                           0.297487064264521 	(obj:0)
_var2860_                           0.193742160401256 	(obj:0)
_var2863_                          0.0276144913791435 	(obj:0)
_var2868_                         0.00339574537998794 	(obj:0)
_var2869_                           0.173553785439785 	(obj:0)
_var2871_                          0.0379593339127904 	(obj:0)
_var2872_                           0.362790180324615 	(obj:0)
_var2879_                           0.096190710388743 	(obj:0)
_var2880_                          0.0428314383748307 	(obj:0)
_var2882_                           0.269817454342866 	(obj:0)
_var2884_                          0.0254501059236989 	(obj:0)
_var2885_                           0.102173000520378 	(obj:0)
_var2886_                          0.0941392593686317 	(obj:0)
_var2888_                            0.10238247002105 	(obj:0)
_var2889_                          0.0234907410791242 	(obj:0)
_var2890_                         0.00458666281595096 	(obj:0)
_var2891_                           0.107704430074917 	(obj:0)
_var2892_                           0.138013731327844 	(obj:0)
_var2894_                            0.12701499887552 	(obj:0)
_var2898_                          0.0196705996810766 	(obj:0)
_var2900_                            0.13294449827112 	(obj:0)
_var2901_                         0.00969864107762589 	(obj:0)
_var2904_                           0.181449805639866 	(obj:0)
_var2905_                           0.052945746062237 	(obj:0)
_var2906_                          0.0916343513539307 	(obj:0)
_var2908_                            0.33114883165794 	(obj:0)
_var2916_                          0.0604404956727681 	(obj:0)
_var2917_                           0.309679694716877 	(obj:0)
_var2918_                           0.161639926458506 	(obj:0)
_var2919_                           0.213671938746637 	(obj:0)
_var2921_                           0.238828887971249 	(obj:0)
_var2924_                           0.251043374180362 	(obj:0)
_var2925_                           0.295729778989571 	(obj:0)
_var2926_                          0.0693583379275586 	(obj:0)
_var2927_                          0.0110640558603438 	(obj:0)
_var2930_                           0.110130316291863 	(obj:0)
_var2931_                           0.154785763370841 	(obj:0)
_var2932_                           0.137246771419041 	(obj:0)
_var2935_                           0.137060454676897 	(obj:0)
_var2936_                           0.120044895339582 	(obj:0)
_var2937_                          0.0767708081299929 	(obj:0)
_var2938_                          0.0184131850893214 	(obj:0)
_var2941_                           0.138813057687123 	(obj:0)
_var2947_                           0.056329830677827 	(obj:0)
_var2948_                           0.098098171822727 	(obj:0)
_var2952_                           0.133392317107639 	(obj:0)
_var2953_                           0.175217218521177 	(obj:0)
_var2956_                         0.00806737326959922 	(obj:0)
_var2957_                           0.228332676336167 	(obj:0)
_var2958_                          0.0767920970675498 	(obj:0)
_var2961_                           0.170324437227374 	(obj:0)
_var2965_                          0.0243812165303487 	(obj:0)
_var2967_                           0.310253885474334 	(obj:0)
_var2969_                          0.0960140500719988 	(obj:0)
_var2970_                           0.084481864279835 	(obj:0)
_var2971_                          0.0860183376775293 	(obj:0)
_var2973_                          0.0916737886798522 	(obj:0)
_var2975_                           0.116430044324356 	(obj:0)
_var2976_                          0.0404187576715771 	(obj:0)
_var2977_                          0.0943252787583625 	(obj:0)
_var2979_                           0.130638368357276 	(obj:0)
_var2980_                            0.30688274256397 	(obj:0)
_var2982_                          0.0557498756695829 	(obj:0)
_var2986_                           0.213644297583955 	(obj:0)
_var2987_                          0.0118441530550614 	(obj:0)
_var2989_                          0.0379020440204243 	(obj:0)
_var2991_                          0.0848237945338858 	(obj:0)
_var2992_                          0.0169438333744176 	(obj:0)
_var2995_                            0.14823806378309 	(obj:0)
_var2996_                          0.0493137690769698 	(obj:0)
_var2997_                          0.0988110049263419 	(obj:0)
_var3002_                           0.199640745786284 	(obj:0)
_var3003_                           0.101432090436271 	(obj:0)
_var3004_                          0.0271223312933295 	(obj:0)
_var3005_                         0.00672910827370812 	(obj:0)
_var3006_                           0.162395128165042 	(obj:0)
_var3008_                         0.00141041704792488 	(obj:0)
_var3012_                          0.0020043484445362 	(obj:0)
_var3013_                           0.196631870796386 	(obj:0)
_var3014_                         0.00343156630476565 	(obj:0)
_var3015_                            0.10270936041921 	(obj:0)
_var3017_                           0.013700271508955 	(obj:0)
_var3018_                         0.00107792238711274 	(obj:0)
_var3019_                            0.05262388425898 	(obj:0)
_var3022_                           0.137987718094169 	(obj:0)
_var3025_                           0.203963889336492 	(obj:0)
_var3030_                          0.0528771488310555 	(obj:0)
_var3033_                          0.0265560644616206 	(obj:0)
_var3034_                           0.158311528749955 	(obj:0)
_var3035_                           0.130001874378507 	(obj:0)
_var3038_                          0.0219581005222224 	(obj:0)
_var3039_                          0.0164389679646876 	(obj:0)
_var3041_                           0.146363550003735 	(obj:0)
_var3045_                           0.109268662028949 	(obj:0)
_var3046_                          0.0391789143320842 	(obj:0)
_var3048_                           0.151921536256392 	(obj:0)
_var3049_                           0.116573416875894 	(obj:0)
_var3050_                         0.00117511375865441 	(obj:0)
_var3051_                          0.0372274364269373 	(obj:0)
_var3052_                           0.121013990035082 	(obj:0)
_var3058_                          0.0291806796163561 	(obj:0)
_var3061_                         0.000654777817566177 	(obj:0)
_var3062_                          0.0691098456755635 	(obj:0)
_var3065_                           0.138934612083512 	(obj:0)
_var3066_                           0.125151831028195 	(obj:0)
_var3067_                         0.00523827071261443 	(obj:0)
_var3069_                          0.0652119666775607 	(obj:0)
_var3070_                          0.0324395307174036 	(obj:0)
_var3071_                          0.0440817591299331 	(obj:0)
_var3072_                           0.077749219102193 	(obj:0)
_var3073_                         0.00450863355621838 	(obj:0)
_var3076_                         0.00355394998785927 	(obj:0)
_var3081_                          0.0275438451297648 	(obj:0)
_var3083_                          0.0436970787376302 	(obj:0)
_var3085_                          0.0247132892208784 	(obj:0)
_var3086_                          0.0161371791963213 	(obj:0)
_var3087_                          0.0757752437589062 	(obj:0)
